NAME : XML100_2345_18
DIMENSION : 101
NB_CLUSTERS : 8
CLUSTERING_ALG : KMedoids
CLUSTERING_PARAMS : k(7)
CLUSTERS
1 0
2 15 18 30 51 56 57 72 78 79 96
3 16 17 32 65 66 73 81 85 91 92
4 3 9 12 19 20 21 23 27 44 47 61 76 84 86 94 98
5 5 28 35 50 63 70 74 90 99
6 2 8 10 14 25 34 36 38 42 46 53 58 59 60 64 67 69 75 93
7 4 24 26 33 41 43 48 49 55 68 82 87 100
8 1 6 7 11 13 22 29 31 37 39 40 45 52 54 62 71 77 80 83 88 89 95 97
EOF